n_potions = 66;
alchemy = [1, 1, 2, 2, 3, 2, 2, 3, 4, 1, 3, 4, 4, 1, 5, 3, 4, 4, 5, 5, 3, 4, 2, 2, 3, 3, 1, 4, 5, 5, 2, 4, 2, 1, 1, 1, 3, 2, 5, 3, 3, 4, 5, 3, 2, 4, 2, 5, 1, 3, 4, 3, 5, 1, 5, 3, 1, 4, 4, 3, 1, 1, 3, 2, 3, 4];
n_days = 12;
min_potions = 5;
max_potions = 7;
min_alchemists = 5;
max_alchemists = 35;
prereqs = [|7,1
|8,2
|8,6
|10,5
|11,5
|11,6
|12,7
|13,8
|13,11
|16,9
|17,10
|17,11
|18,10
|18,11
|19,11
|20,9
|21,10
|24,19
|26,13
|30,9
|32,9
|34,17
|35,9
|35,17
|35,18
|37,20
|41,9
|41,17
|41,18
|43,20
|45,38
|46,37
|47,42
|48,34
|48,35
|49,30
|49,32
|50,43
|51,33
|53,47
|54,50
|56,51
|57,39
|57,34
|58,28
|59,55
|61,48
|61,55
|62,31
|65,59
|];
